1 3 100 24803.67
1 3 200 25187.68
1 3 300 24790.70
2 3 100 30302.23
2 3 200 30500.81
2 3 300 31008.40
3 3 100 29198.29
3 3 200 30691.13
3 3 300 30329.81
4 3 100 28914.27
4 3 200 30660.69
4 3 300 30353.50
5 3 100 28763.13
5 3 200 29370.65
5 3 300 28911.33
